Custom/2254257_18.param
$ LBS instance with n = 18, seed = 2254257
letting cards be [2,14,11,33,37,43,41,30,9,35,44,5,3,22,34,24,47,17]
